c Maximum weighted clique instances generated from exactcolors.
c cutoff: 8589934.
c A clique of value > scalef (8589934) defines an improving stable sets for coloring.
p edge 65 0
n 1 8589933
n 2 8589933
n 3 8589933
n 4 8589933
n 5 8589934
n 6 8589933
n 7 8589933
n 8 8589933
n 9 8589933
n 10 8589933
n 11 8589933
n 12 8589933
n 13 8589933
n 14 8589933
n 15 8589933
n 16 8589933
n 17 8589933
n 18 8589933
n 19 8589933
n 20 8589933
n 21 8589933
n 22 8589933
n 23 8589934
n 24 8589933
n 25 8589933
n 26 8589933
n 27 8589933
n 28 8589933
n 29 8589933
n 30 8589933
n 31 8589933
n 32 8589933
n 33 8589934
n 34 8589933
n 35 8589933
n 36 8589933
n 37 8589933
n 38 8589933
n 39 8589933
n 40 8589933
n 41 8589933
n 42 8589933
n 43 8589933
n 44 8589933
n 45 8589933
n 46 8589933
n 47 8589933
n 48 8589933
n 49 8589933
n 50 8589933
n 51 8589933
n 52 8589933
n 53 8589933
n 54 8589933
n 55 8589933
n 56 8589933
n 57 8589933
n 58 8589933
n 59 8589933
n 60 8589933
n 61 8589933
n 62 8589933
n 63 8589933
n 64 8589934
n 65 8589933
